NAME : 0
COMMENT : CVRP Instance
TYPE : CVRP
DIMENSION : 837
EDGE_WEIGHT_TYPE : EUC_2D
CAPACITY : 44
NODE_COORD_SECTION
1	940.0	231.0
2	721.0	848.0
3	618.0	44.0
4	993.0	145.0
5	636.0	512.0
6	274.0	496.0
7	245.0	945.0
8	449.0	812.0
9	29.0	650.0
10	399.0	8.0
11	548.0	19.0
12	769.0	717.0
13	221.0	850.0
14	980.0	233.0
15	477.0	922.0
16	498.0	720.0
17	136.0	832.0
18	351.0	663.0
19	58.0	67.0
20	889.0	569.0
21	28.0	334.0
22	804.0	928.0
23	900.0	138.0
24	393.0	403.0
25	982.0	609.0
26	79.0	299.0
27	684.0	582.0
28	169.0	252.0
29	405.0	925.0
30	875.0	191.0
31	674.0	112.0
32	576.0	537.0
33	539.0	63.0
34	338.0	657.0
35	210.0	209.0
36	676.0	568.0
37	949.0	826.0
38	572.0	890.0
39	210.0	615.0
40	737.0	46.0
41	30.0	527.0
42	131.0	724.0
43	671.0	842.0
44	727.0	566.0
45	507.0	497.0
46	524.0	134.0
47	167.0	665.0
48	819.0	108.0
49	929.0	582.0
50	713.0	738.0
51	352.0	626.0
52	887.0	547.0
53	176.0	645.0
54	611.0	289.0
55	457.0	532.0
56	11.0	147.0
57	958.0	60.0
58	587.0	187.0
59	790.0	956.0
60	974.0	63.0
61	306.0	225.0
62	961.0	969.0
63	238.0	736.0
64	758.0	840.0
65	88.0	44.0
66	507.0	811.0
67	768.0	476.0
68	51.0	914.0
69	494.0	445.0
70	953.0	33.0
71	922.0	45.0
72	748.0	111.0
73	544.0	867.0
74	477.0	596.0
75	322.0	79.0
76	439.0	150.0
77	586.0	764.0
78	214.0	599.0
79	168.0	480.0
80	925.0	138.0
81	797.0	107.0
82	751.0	783.0
83	738.0	913.0
84	703.0	73.0
85	681.0	886.0
86	627.0	27.0
87	887.0	310.0
88	478.0	345.0
89	571.0	600.0
90	834.0	858.0
91	549.0	370.0
92	657.0	233.0
93	126.0	769.0
94	317.0	934.0
95	237.0	55.0
96	851.0	409.0
97	838.0	426.0
98	477.0	559.0
99	542.0	94.0
100	370.0	432.0
101	520.0	621.0
102	666.0	178.0
103	631.0	484.0
104	733.0	255.0
105	820.0	918.0
106	687.0	877.0
107	752.0	983.0
108	157.0	720.0
109	709.0	898.0
110	300.0	878.0
111	728.0	617.0
112	66.0	59.0
113	991.0	657.0
114	717.0	47.0
115	463.0	177.0
116	586.0	397.0
117	792.0	307.0
118	100.0	392.0
119	438.0	722.0
120	43.0	247.0
121	71.0	476.0
122	69.0	560.0
123	211.0	73.0
124	471.0	14.0
125	115.0	806.0
126	194.0	337.0
127	921.0	320.0
128	104.0	495.0
129	36.0	456.0
130	500.0	152.0
131	782.0	316.0
132	881.0	374.0
133	277.0	601.0
134	962.0	575.0
135	588.0	181.0
136	941.0	728.0
137	108.0	931.0
138	11.0	814.0
139	209.0	800.0
140	129.0	525.0
141	126.0	149.0
142	31.0	219.0
143	97.0	324.0
144	495.0	122.0
145	759.0	480.0
146	859.0	782.0
147	780.0	669.0
148	786.0	769.0
149	759.0	159.0
150	282.0	633.0
151	361.0	17.0
152	957.0	103.0
153	711.0	939.0
154	544.0	544.0
155	27.0	318.0
156	665.0	656.0
157	523.0	586.0
158	842.0	429.0
159	539.0	783.0
160	769.0	347.0
161	937.0	386.0
162	824.0	841.0
163	738.0	391.0
164	833.0	988.0
165	16.0	637.0
166	91.0	472.0
167	41.0	388.0
168	623.0	780.0
169	660.0	155.0
170	700.0	658.0
171	946.0	783.0
172	607.0	815.0
173	87.0	771.0
174	658.0	874.0
175	527.0	853.0
176	459.0	577.0
177	352.0	829.0
178	427.0	235.0
179	937.0	639.0
180	554.0	438.0
181	833.0	692.0
182	421.0	999.0
183	908.0	447.0
184	469.0	163.0
185	737.0	238.0
186	509.0	61.0
187	246.0	352.0
188	488.0	408.0
189	600.0	359.0
190	510.0	460.0
191	342.0	691.0
192	95.0	216.0
193	787.0	465.0
194	700.0	873.0
195	659.0	568.0
196	478.0	525.0
197	988.0	980.0
198	303.0	119.0
199	241.0	353.0
200	28.0	661.0
201	724.0	842.0
202	2.0	660.0
203	210.0	180.0
204	840.0	841.0
205	843.0	9.0
206	430.0	92.0
207	265.0	453.0
208	209.0	673.0
209	20.0	952.0
210	673.0	659.0
211	185.0	335.0
212	138.0	655.0
213	263.0	155.0
214	769.0	741.0
215	325.0	260.0
216	831.0	678.0
217	401.0	625.0
218	212.0	360.0
219	118.0	426.0
220	192.0	520.0
221	596.0	376.0
222	449.0	679.0
223	579.0	295.0
224	333.0	352.0
225	837.0	944.0
226	377.0	500.0
227	797.0	97.0
228	65.0	235.0
229	440.0	877.0
230	849.0	769.0
231	439.0	326.0
232	407.0	621.0
233	550.0	241.0
234	169.0	68.0
235	253.0	243.0
236	76.0	852.0
237	642.0	116.0
238	598.0	124.0
239	564.0	374.0
240	997.0	660.0
241	14.0	98.0
242	845.0	303.0
243	774.0	9.0
244	791.0	671.0
245	299.0	800.0
246	575.0	109.0
247	865.0	708.0
248	290.0	897.0
249	953.0	348.0
250	906.0	692.0
251	895.0	790.0
252	25.0	242.0
253	761.0	886.0
254	909.0	336.0
255	501.0	846.0
256	731.0	4.0
257	337.0	71.0
258	106.0	973.0
259	400.0	229.0
260	846.0	368.0
261	623.0	580.0
262	978.0	669.0
263	884.0	559.0
264	10.0	910.0
265	390.0	602.0
266	451.0	134.0
267	324.0	221.0
268	569.0	98.0
269	735.0	341.0
270	411.0	220.0
271	672.0	867.0
272	69.0	790.0
273	584.0	520.0
274	193.0	416.0
275	954.0	912.0
276	761.0	734.0
277	192.0	875.0
278	88.0	353.0
279	777.0	38.0
280	98.0	68.0
281	642.0	658.0
282	838.0	305.0
283	824.0	694.0
284	238.0	825.0
285	344.0	138.0
286	137.0	683.0
287	357.0	593.0
288	541.0	423.0
289	537.0	99.0
290	137.0	539.0
291	719.0	213.0
292	68.0	173.0
293	788.0	339.0
294	939.0	69.0
295	826.0	300.0
296	86.0	779.0
297	492.0	174.0
298	96.0	108.0
299	674.0	364.0
300	566.0	830.0
301	371.0	935.0
302	119.0	629.0
303	840.0	180.0
304	678.0	310.0
305	979.0	466.0
306	970.0	249.0
307	975.0	291.0
308	298.0	94.0
309	192.0	630.0
310	560.0	724.0
311	310.0	503.0
312	506.0	445.0
313	720.0	806.0
314	259.0	450.0
315	156.0	388.0
316	81.0	518.0
317	597.0	384.0
318	388.0	967.0
319	399.0	787.0
320	11.0	859.0
321	688.0	276.0
322	721.0	451.0
323	3.0	300.0
324	983.0	902.0
325	184.0	404.0
326	984.0	221.0
327	514.0	801.0
328	887.0	476.0
329	106.0	208.0
330	356.0	238.0
331	552.0	923.0
332	318.0	297.0
333	803.0	145.0
334	974.0	602.0
335	316.0	566.0
336	73.0	473.0
337	448.0	186.0
338	422.0	51.0
339	86.0	398.0
340	653.0	3.0
341	548.0	316.0
342	239.0	470.0
343	717.0	351.0
344	762.0	276.0
345	434.0	39.0
346	420.0	378.0
347	141.0	122.0
348	805.0	572.0
349	769.0	874.0
350	909.0	440.0
351	875.0	676.0
352	393.0	561.0
353	38.0	852.0
354	105.0	958.0
355	504.0	740.0
356	840.0	804.0
357	62.0	24.0
358	360.0	375.0
359	199.0	310.0
360	661.0	252.0
361	484.0	955.0
362	481.0	777.0
363	208.0	145.0
364	74.0	749.0
365	277.0	225.0
366	223.0	388.0
367	353.0	272.0
368	504.0	527.0
369	242.0	931.0
370	801.0	74.0
371	538.0	483.0
372	75.0	710.0
373	510.0	183.0
374	377.0	842.0
375	244.0	834.0
376	115.0	811.0
377	37.0	611.0
378	570.0	338.0
379	30.0	147.0
380	658.0	235.0
381	109.0	856.0
382	950.0	351.0
383	34.0	512.0
384	937.0	779.0
385	840.0	77.0
386	541.0	308.0
387	470.0	783.0
388	890.0	127.0
389	672.0	450.0
390	321.0	779.0
391	132.0	77.0
392	658.0	358.0
393	875.0	663.0
394	719.0	972.0
395	893.0	283.0
396	86.0	437.0
397	45.0	423.0
398	119.0	237.0
399	199.0	550.0
400	221.0	723.0
401	613.0	950.0
402	357.0	566.0
403	582.0	795.0
404	815.0	464.0
405	329.0	481.0
406	223.0	90.0
407	144.0	199.0
408	819.0	300.0
409	778.0	769.0
410	960.0	581.0
411	73.0	711.0
412	891.0	760.0
413	869.0	582.0
414	762.0	952.0
415	129.0	544.0
416	891.0	765.0
417	341.0	202.0
418	279.0	754.0
419	152.0	677.0
420	381.0	124.0
421	262.0	932.0
422	114.0	684.0
423	563.0	354.0
424	128.0	42.0
425	527.0	584.0
426	322.0	73.0
427	562.0	370.0
428	392.0	609.0
429	402.0	184.0
430	407.0	91.0
431	269.0	94.0
432	736.0	268.0
433	598.0	496.0
434	292.0	92.0
435	108.0	661.0
436	433.0	748.0
437	331.0	889.0
438	240.0	788.0
439	536.0	312.0
440	341.0	127.0
441	258.0	809.0
442	519.0	923.0
443	326.0	931.0
444	391.0	274.0
445	117.0	800.0
446	353.0	801.0
447	202.0	115.0
448	323.0	190.0
449	44.0	588.0
450	326.0	102.0
451	446.0	362.0
452	469.0	593.0
453	117.0	93.0
454	764.0	469.0
455	595.0	304.0
456	511.0	582.0
457	552.0	544.0
458	267.0	814.0
459	355.0	95.0
460	82.0	52.0
461	505.0	535.0
462	289.0	40.0
463	232.0	30.0
464	234.0	71.0
465	397.0	107.0
466	339.0	189.0
467	296.0	920.0
468	39.0	226.0
469	348.0	79.0
470	513.0	307.0
471	528.0	254.0
472	333.0	16.0
473	382.0	971.0
474	369.0	93.0
475	532.0	444.0
476	451.0	579.0
477	380.0	524.0
478	64.0	69.0
479	95.0	739.0
480	483.0	514.0
481	750.0	328.0
482	258.0	106.0
483	497.0	64.0
484	286.0	695.0
485	248.0	949.0
486	375.0	378.0
487	465.0	221.0
488	665.0	270.0
489	366.0	0.0
490	254.0	885.0
491	262.0	90.0
492	237.0	52.0
493	573.0	528.0
494	355.0	35.0
495	326.0	743.0
496	147.0	77.0
497	557.0	337.0
498	120.0	742.0
499	247.0	1.0
500	542.0	619.0
501	352.0	892.0
502	366.0	80.0
503	91.0	80.0
504	538.0	87.0
505	902.0	274.0
506	654.0	479.0
507	313.0	817.0
508	106.0	673.0
509	195.0	998.0
510	115.0	52.0
511	364.0	134.0
512	274.0	243.0
513	57.0	711.0
514	174.0	77.0
515	78.0	697.0
516	390.0	168.0
517	213.0	892.0
518	128.0	133.0
519	449.0	314.0
520	556.0	888.0
521	321.0	786.0
522	600.0	669.0
523	412.0	125.0
524	324.0	50.0
525	342.0	957.0
526	286.0	100.0
527	430.0	128.0
528	207.0	933.0
529	468.0	125.0
530	175.0	709.0
531	118.0	633.0
532	162.0	859.0
533	51.0	47.0
534	53.0	761.0
535	316.0	25.0
536	134.0	680.0
537	442.0	125.0
538	616.0	462.0
539	444.0	691.0
540	40.0	840.0
541	464.0	616.0
542	127.0	21.0
543	285.0	942.0
544	79.0	85.0
545	164.0	732.0
546	802.0	300.0
547	601.0	607.0
548	310.0	162.0
549	340.0	363.0
550	133.0	689.0
551	414.0	154.0
552	77.0	257.0
553	413.0	193.0
554	964.0	400.0
555	410.0	533.0
556	461.0	585.0
557	134.0	80.0
558	298.0	981.0
559	410.0	716.0
560	181.0	164.0
561	150.0	224.0
562	446.0	55.0
563	102.0	676.0
564	241.0	697.0
565	395.0	26.0
566	441.0	90.0
567	451.0	196.0
568	136.0	5.0
569	392.0	113.0
570	270.0	851.0
571	507.0	75.0
572	398.0	622.0
573	312.0	43.0
574	352.0	730.0
575	305.0	69.0
576	322.0	743.0
577	349.0	122.0
578	395.0	83.0
579	387.0	251.0
580	105.0	616.0
581	355.0	120.0
582	751.0	566.0
583	249.0	494.0
584	209.0	637.0
585	79.0	699.0
586	345.0	960.0
587	413.0	673.0
588	130.0	914.0
589	274.0	911.0
590	780.0	402.0
591	140.0	61.0
592	482.0	279.0
593	246.0	922.0
594	282.0	106.0
595	356.0	96.0
596	245.0	939.0
597	484.0	170.0
598	542.0	595.0
599	370.0	97.0
600	331.0	165.0
601	534.0	437.0
602	139.0	685.0
603	780.0	618.0
604	689.0	306.0
605	22.0	4.0
606	436.0	370.0
607	304.0	987.0
608	171.0	660.0
609	764.0	567.0
610	594.0	247.0
611	255.0	840.0
612	495.0	395.0
613	579.0	590.0
614	86.0	560.0
615	378.0	926.0
616	114.0	692.0
617	540.0	352.0
618	249.0	45.0
619	601.0	470.0
620	723.0	669.0
621	457.0	108.0
622	367.0	181.0
623	77.0	759.0
624	289.0	292.0
625	136.0	898.0
626	213.0	165.0
627	455.0	745.0
628	278.0	80.0
629	642.0	706.0
630	608.0	601.0
631	556.0	353.0
632	515.0	475.0
633	263.0	868.0
634	186.0	643.0
635	443.0	30.0
636	246.0	21.0
637	634.0	512.0
638	655.0	385.0
639	144.0	764.0
640	693.0	342.0
641	460.0	151.0
642	555.0	359.0
643	327.0	83.0
644	345.0	249.0
645	115.0	82.0
646	530.0	192.0
647	114.0	674.0
648	213.0	657.0
649	597.0	751.0
650	277.0	98.0
651	518.0	599.0
652	275.0	32.0
653	414.0	97.0
654	324.0	43.0
655	102.0	914.0
656	603.0	302.0
657	480.0	125.0
658	189.0	49.0
659	561.0	541.0
660	424.0	174.0
661	542.0	198.0
662	276.0	191.0
663	263.0	655.0
664	468.0	282.0
665	199.0	7.0
666	336.0	851.0
667	59.0	564.0
668	521.0	545.0
669	516.0	627.0
670	554.0	621.0
671	313.0	731.0
672	300.0	98.0
673	412.0	189.0
674	242.0	77.0
675	201.0	388.0
676	371.0	154.0
677	503.0	99.0
678	384.0	327.0
679	512.0	898.0
680	283.0	59.0
681	278.0	136.0
682	375.0	11.0
683	339.0	132.0
684	318.0	181.0
685	482.0	548.0
686	137.0	621.0
687	67.0	799.0
688	620.0	405.0
689	45.0	758.0
690	155.0	793.0
691	249.0	50.0
692	205.0	733.0
693	559.0	485.0
694	386.0	122.0
695	554.0	130.0
696	599.0	693.0
697	365.0	919.0
698	544.0	449.0
699	297.0	100.0
700	355.0	64.0
701	38.0	710.0
702	473.0	164.0
703	34.0	929.0
704	150.0	787.0
705	543.0	575.0
706	178.0	253.0
707	690.0	409.0
708	55.0	99.0
709	242.0	68.0
710	535.0	315.0
711	230.0	108.0
712	112.0	800.0
713	195.0	119.0
714	519.0	123.0
715	255.0	885.0
716	283.0	58.0
717	346.0	372.0
718	55.0	79.0
719	470.0	430.0
720	109.0	474.0
721	121.0	716.0
722	46.0	87.0
723	276.0	162.0
724	292.0	10.0
725	388.0	31.0
726	627.0	292.0
727	105.0	831.0
728	84.0	724.0
729	196.0	879.0
730	136.0	70.0
731	70.0	101.0
732	462.0	77.0
733	182.0	429.0
734	644.0	337.0
735	461.0	727.0
736	611.0	551.0
737	250.0	928.0
738	330.0	168.0
739	605.0	605.0
740	116.0	708.0
741	257.0	883.0
742	593.0	306.0
743	335.0	249.0
744	113.0	146.0
745	371.0	178.0
746	631.0	430.0
747	397.0	76.0
748	251.0	203.0
749	349.0	223.0
750	348.0	93.0
751	549.0	148.0
752	99.0	354.0
753	65.0	569.0
754	446.0	265.0
755	218.0	903.0
756	174.0	66.0
757	363.0	182.0
758	571.0	482.0
759	599.0	697.0
760	546.0	563.0
761	294.0	994.0
762	283.0	42.0
763	197.0	184.0
764	316.0	899.0
765	603.0	611.0
766	792.0	373.0
767	182.0	925.0
768	240.0	583.0
769	142.0	783.0
770	684.0	693.0
771	269.0	748.0
772	646.0	519.0
773	268.0	693.0
774	213.0	33.0
775	111.0	771.0
776	61.0	608.0
777	246.0	114.0
778	658.0	591.0
779	370.0	288.0
780	312.0	448.0
781	210.0	48.0
782	679.0	342.0
783	180.0	107.0
784	367.0	111.0
785	539.0	169.0
786	18.0	18.0
787	248.0	946.0
788	565.0	83.0
789	198.0	787.0
790	518.0	10.0
791	71.0	769.0
792	554.0	356.0
793	64.0	665.0
794	301.0	987.0
795	219.0	644.0
796	637.0	463.0
797	415.0	133.0
798	190.0	59.0
799	301.0	863.0
800	747.0	120.0
801	274.0	803.0
802	422.0	236.0
803	389.0	133.0
804	469.0	369.0
805	591.0	776.0
806	241.0	902.0
807	657.0	311.0
808	375.0	17.0
809	393.0	64.0
810	496.0	587.0
811	332.0	242.0
812	571.0	590.0
813	236.0	921.0
814	554.0	485.0
815	439.0	545.0
816	114.0	190.0
817	324.0	21.0
818	656.0	228.0
819	526.0	747.0
820	340.0	132.0
821	202.0	580.0
822	75.0	668.0
823	238.0	966.0
824	513.0	551.0
825	163.0	299.0
826	141.0	898.0
827	306.0	117.0
828	264.0	956.0
829	575.0	460.0
830	95.0	725.0
831	60.0	249.0
832	415.0	82.0
833	667.0	557.0
834	266.0	960.0
835	567.0	423.0
836	348.0	955.0
837	345.0	144.0
DEMAND_SECTION
1	0
2	7
3	9
4	6
5	7
6	6
7	8
8	9
9	5
10	8
11	10
12	7
13	5
14	7
15	10
16	6
17	5
18	5
19	7
20	6
21	10
22	8
23	10
24	9
25	6
26	10
27	10
28	10
29	10
30	5
31	7
32	8
33	9
34	5
35	7
36	10
37	9
38	6
39	7
40	6
41	7
42	7
43	9
44	6
45	8
46	6
47	5
48	7
49	6
50	7
51	6
52	10
53	6
54	7
55	6
56	7
57	5
58	6
59	9
60	7
61	7
62	8
63	9
64	10
65	10
66	8
67	8
68	5
69	9
70	9
71	10
72	9
73	7
74	10
75	5
76	5
77	10
78	8
79	8
80	10
81	6
82	6
83	8
84	8
85	5
86	9
87	7
88	8
89	6
90	6
91	6
92	9
93	7
94	10
95	10
96	10
97	10
98	7
99	6
100	8
101	6
102	8
103	8
104	10
105	10
106	7
107	7
108	9
109	7
110	10
111	7
112	5
113	9
114	5
115	5
116	9
117	8
118	7
119	9
120	5
121	5
122	8
123	7
124	9
125	10
126	10
127	6
128	8
129	5
130	10
131	10
132	10
133	7
134	9
135	8
136	7
137	6
138	7
139	9
140	9
141	10
142	8
143	6
144	10
145	6
146	7
147	8
148	5
149	9
150	6
151	9
152	7
153	10
154	8
155	10
156	5
157	10
158	8
159	5
160	10
161	10
162	8
163	7
164	8
165	7
166	5
167	6
168	10
169	6
170	6
171	10
172	10
173	8
174	6
175	6
176	9
177	5
178	7
179	10
180	6
181	8
182	6
183	8
184	7
185	8
186	8
187	8
188	5
189	8
190	9
191	8
192	7
193	5
194	8
195	9
196	8
197	5
198	8
199	10
200	5
201	5
202	6
203	8
204	9
205	6
206	9
207	7
208	8
209	5
210	9
211	10
212	10
213	6
214	7
215	7
216	8
217	8
218	5
219	5
220	9
221	10
222	6
223	6
224	5
225	10
226	9
227	8
228	7
229	7
230	10
231	9
232	9
233	8
234	5
235	7
236	10
237	5
238	6
239	7
240	9
241	7
242	9
243	5
244	9
245	8
246	7
247	8
248	9
249	7
250	7
251	7
252	9
253	9
254	5
255	5
256	5
257	5
258	5
259	8
260	9
261	8
262	7
263	5
264	5
265	5
266	9
267	7
268	5
269	5
270	7
271	7
272	7
273	5
274	9
275	8
276	7
277	9
278	7
279	7
280	6
281	7
282	5
283	5
284	7
285	6
286	6
287	8
288	7
289	5
290	6
291	8
292	6
293	7
294	8
295	6
296	6
297	5
298	5
299	6
300	5
301	6
302	7
303	8
304	7
305	5
306	5
307	10
308	8
309	9
310	5
311	6
312	6
313	7
314	6
315	10
316	8
317	8
318	7
319	10
320	8
321	7
322	8
323	7
324	7
325	6
326	8
327	8
328	8
329	6
330	5
331	8
332	6
333	8
334	10
335	5
336	6
337	7
338	7
339	10
340	10
341	9
342	7
343	6
344	10
345	9
346	8
347	10
348	5
349	8
350	8
351	7
352	7
353	9
354	7
355	10
356	5
357	10
358	5
359	5
360	5
361	6
362	8
363	8
364	7
365	6
366	9
367	8
368	10
369	7
370	10
371	8
372	10
373	7
374	7
375	8
376	6
377	5
378	7
379	8
380	6
381	7
382	9
383	7
384	5
385	7
386	6
387	9
388	10
389	8
390	5
391	6
392	10
393	6
394	8
395	8
396	7
397	6
398	5
399	5
400	8
401	7
402	5
403	6
404	7
405	5
406	10
407	10
408	8
409	9
410	5
411	5
412	5
413	10
414	9
415	5
416	10
417	5
418	7
419	9
420	8
421	5
422	9
423	7
424	6
425	5
426	9
427	9
428	8
429	7
430	9
431	5
432	7
433	6
434	6
435	6
436	5
437	9
438	9
439	6
440	5
441	7
442	5
443	9
444	10
445	7
446	8
447	9
448	5
449	6
450	6
451	8
452	8
453	8
454	8
455	9
456	6
457	5
458	7
459	7
460	9
461	5
462	8
463	8
464	8
465	7
466	5
467	10
468	7
469	6
470	10
471	10
472	9
473	9
474	9
475	8
476	8
477	9
478	10
479	9
480	8
481	7
482	7
483	6
484	9
485	5
486	9
487	8
488	5
489	10
490	10
491	10
492	8
493	5
494	8
495	5
496	6
497	6
498	8
499	6
500	5
501	10
502	6
503	5
504	9
505	10
506	8
507	7
508	8
509	10
510	10
511	6
512	9
513	6
514	5
515	7
516	8
517	8
518	5
519	5
520	10
521	10
522	10
523	8
524	8
525	7
526	8
527	9
528	8
529	8
530	8
531	10
532	5
533	8
534	9
535	6
536	7
537	10
538	9
539	10
540	10
541	10
542	7
543	8
544	8
545	5
546	9
547	10
548	9
549	5
550	7
551	9
552	10
553	10
554	7
555	6
556	8
557	6
558	7
559	10
560	9
561	8
562	5
563	9
564	8
565	6
566	6
567	8
568	9
569	9
570	5
571	10
572	9
573	5
574	6
575	5
576	6
577	7
578	10
579	7
580	5
581	9
582	10
583	8
584	6
585	6
586	5
587	10
588	6
589	8
590	6
591	9
592	9
593	5
594	9
595	8
596	8
597	5
598	9
599	7
600	10
601	7
602	8
603	6
604	6
605	5
606	6
607	5
608	10
609	5
610	9
611	9
612	5
613	8
614	5
615	5
616	10
617	8
618	7
619	7
620	5
621	7
622	8
623	9
624	10
625	7
626	10
627	5
628	8
629	5
630	5
631	10
632	5
633	6
634	10
635	8
636	9
637	6
638	8
639	8
640	10
641	7
642	10
643	9
644	8
645	7
646	5
647	8
648	6
649	6
650	8
651	5
652	10
653	9
654	9
655	10
656	7
657	6
658	5
659	6
660	6
661	6
662	5
663	8
664	8
665	9
666	6
667	9
668	10
669	6
670	10
671	6
672	5
673	10
674	8
675	5
676	10
677	8
678	10
679	5
680	6
681	10
682	5
683	5
684	6
685	8
686	7
687	10
688	6
689	5
690	7
691	8
692	6
693	8
694	9
695	7
696	6
697	7
698	6
699	8
700	7
701	8
702	7
703	10
704	10
705	5
706	6
707	8
708	10
709	10
710	6
711	5
712	6
713	5
714	6
715	6
716	9
717	5
718	7
719	8
720	9
721	7
722	8
723	5
724	6
725	5
726	10
727	10
728	8
729	10
730	5
731	9
732	5
733	10
734	8
735	6
736	7
737	8
738	7
739	6
740	7
741	7
742	5
743	9
744	6
745	6
746	9
747	5
748	5
749	6
750	10
751	8
752	10
753	9
754	10
755	7
756	10
757	5
758	8
759	5
760	7
761	8
762	7
763	5
764	7
765	6
766	9
767	7
768	8
769	10
770	7
771	8
772	9
773	6
774	6
775	8
776	8
777	10
778	9
779	7
780	5
781	5
782	8
783	10
784	10
785	8
786	8
787	7
788	10
789	5
790	9
791	8
792	5
793	6
794	7
795	7
796	5
797	10
798	8
799	9
800	9
801	8
802	8
803	7
804	9
805	7
806	10
807	8
808	6
809	10
810	8
811	5
812	6
813	8
814	8
815	5
816	5
817	8
818	7
819	9
820	10
821	8
822	5
823	8
824	9
825	6
826	8
827	8
828	10
829	9
830	5
831	6
832	5
833	5
834	7
835	7
836	6
837	10
DEPOT_SECTION
1
-1
EOF
